language Essence 1.3

letting graph be
        function((1, 2) --> blue, (1, 3) --> blue, (1, 4) --> blue, (1, 5) --> blue, (1, 6) --> blue, (1, 7) --> blue,
                 (2, 1) --> blue, (2, 3) --> blue, (2, 4) --> blue, (2, 5) --> blue, (2, 6) --> blue, (2, 7) --> blue,
                 (3, 1) --> blue, (3, 2) --> blue, (3, 4) --> blue, (3, 5) --> blue, (3, 6) --> blue, (3, 7) --> blue,
                 (4, 1) --> blue, (4, 2) --> blue, (4, 3) --> blue, (4, 5) --> blue, (4, 6) --> blue, (4, 7) --> blue,
                 (5, 1) --> blue, (5, 2) --> blue, (5, 3) --> blue, (5, 4) --> blue, (5, 6) --> blue, (5, 7) --> blue,
                 (6, 1) --> blue, (6, 2) --> blue, (6, 3) --> blue, (6, 4) --> blue, (6, 5) --> blue, (6, 7) --> blue,
                 (7, 1) --> blue, (7, 2) --> blue, (7, 3) --> blue, (7, 4) --> blue, (7, 5) --> blue, (7, 6) --> blue)
